Version identifier: 22.1.1.0 | 2022-11-28 | 9160aff4d
CPXPARAM_ClockType                               1
CPXPARAM_Read_DataCheck                          1
CPXPARAM_Threads                                 1
CPXPARAM_TimeLimit                               7200
CPXPARAM_MIP_Tolerances_AbsMIPGap                0
CPXPARAM_MIP_Tolerances_MIPGap                   0
CPXPARAM_MIP_Tolerances_Integrality              0
Found incumbent of value 0.000000 after 0.00 sec. (2.20 ticks)
Tried aggregator 1 time.
MIP Presolve eliminated 12 rows and 4 columns.
MIP Presolve modified 8 coefficients.
Reduced MIP has 32107 rows, 1901 columns, and 98591 nonzeros.
Reduced MIP has 1901 binaries, 0 generals, 0 SOSs, and 0 indicators.
Presolve time = 0.07 sec. (42.21 ticks)
Probing time = 0.01 sec. (4.12 ticks)
Tried aggregator 1 time.
Detecting symmetries...
Reduced MIP has 32107 rows, 1901 columns, and 98591 nonzeros.
Reduced MIP has 1901 binaries, 0 generals, 0 SOSs, and 0 indicators.
Presolve time = 0.09 sec. (54.84 ticks)
Probing time = 0.01 sec. (4.07 ticks)
Clique table members: 799.
MIP emphasis: balance optimality and feasibility.
MIP search method: dynamic search.
Parallel mode: none, using 1 thread.
Root relaxation solution time = 0.22 sec. (125.61 ticks)

        Nodes                                         Cuts/
   Node  Left     Objective  IInf  Best Integer    Best Bound    ItCnt     Gap

*     0+    0                            0.0000     2540.0000              --- 
      0     0      762.0000   246        0.0000      762.0000      700     --- 
*     0+    0                          762.0000      762.0000             0.00%
      0     0        cutoff            762.0000      762.0000      700    0.00%
Elapsed time = 3.38 sec. (2963.48 ticks, tree = 0.01 MB, solutions = 2)

Root node processing (before b&c):
  Real time             =    3.38 sec. (2963.70 ticks)
Sequential b&c:
  Real time             =    0.00 sec. (0.00 ticks)
                          ------------
Total (root+branch&cut) =    3.38 sec. (2963.70 ticks)
Solution is feasible.

---------------------
@@@ MIP_optimal
>>> Benchmark mc2024_track1_175.cnf k 5 OPT 762 TimeCost 5.625603199005127 TimeSolve 3.4522764682769775 TimeRead 0.012018442153930664 TimeTrans 2.1613082885742188
